c description: Perfect Matching Principle on 
c generator: CNFgen (0.9.0)
c copyright: (C) 2012-2020 Massimo Lauria <massimo.lauria@uniroma1.it>
c url: https://massimolauria.net/cnfgen
c
p cnf 120 959
-1 -2 0
-1 -3 0
-1 -4 0
-1 -5 0
-1 -6 0
-2 -3 0
-2 -4 0
-2 -5 0
-2 -6 0
-3 -4 0
-3 -5 0
-3 -6 0
-4 -5 0
-4 -6 0
-5 -6 0
1 2 3 4 5 6 0
-7 -8 0
-7 -9 0
-7 -10 0
-7 -11 0
-8 -9 0
-8 -10 0
-8 -11 0
-9 -10 0
-9 -11 0
-10 -11 0
7 8 9 10 11 0
-1 -12 0
-1 -13 0
-1 -14 0
-1 -15 0
-1 -16 0
-12 -13 0
-12 -14 0
-12 -15 0
-12 -16 0
-13 -14 0
-13 -15 0
-13 -16 0
-14 -15 0
-14 -16 0
-15 -16 0
1 12 13 14 15 16 0
-7 -17 0
-7 -18 0
-7 -19 0
-7 -20 0
-7 -21 0
-7 -22 0
-17 -18 0
-17 -19 0
-17 -20 0
-17 -21 0
-17 -22 0
-18 -19 0
-18 -20 0
-18 -21 0
-18 -22 0
-19 -20 0
-19 -21 0
-19 -22 0
-20 -21 0
-20 -22 0
-21 -22 0
7 17 18 19 20 21 22 0
-23 -24 0
-23 -25 0
-23 -26 0
-23 -27 0
-23 -28 0
-24 -25 0
-24 -26 0
-24 -27 0
-24 -28 0
-25 -26 0
-25 -27 0
-25 -28 0
-26 -27 0
-26 -28 0
-27 -28 0
23 24 25 26 27 28 0
-23 -29 0
-23 -30 0
-23 -31 0
-23 -32 0
-23 -33 0
-23 -34 0
-23 -35 0
-23 -36 0
-23 -37 0
-23 -38 0
-23 -39 0
-29 -30 0
-29 -31 0
-29 -32 0
-29 -33 0
-29 -34 0
-29 -35 0
-29 -36 0
-29 -37 0
-29 -38 0
-29 -39 0
-30 -31 0
-30 -32 0
-30 -33 0
-30 -34 0
-30 -35 0
-30 -36 0
-30 -37 0
-30 -38 0
-30 -39 0
-31 -32 0
-31 -33 0
-31 -34 0
-31 -35 0
-31 -36 0
-31 -37 0
-31 -38 0
-31 -39 0
-32 -33 0
-32 -34 0
-32 -35 0
-32 -36 0
-32 -37 0
-32 -38 0
-32 -39 0
-33 -34 0
-33 -35 0
-33 -36 0
-33 -37 0
-33 -38 0
-33 -39 0
-34 -35 0
-34 -36 0
-34 -37 0
-34 -38 0
-34 -39 0
-35 -36 0
-35 -37 0
-35 -38 0
-35 -39 0
-36 -37 0
-36 -38 0
-36 -39 0
-37 -38 0
-37 -39 0
-38 -39 0
23 29 30 31 32 33 34 35 36 37 38 39 0
-2 -17 0
-2 -29 0
-2 -40 0
-2 -41 0
-2 -42 0
-2 -43 0
-2 -44 0
-2 -45 0
-2 -46 0
-2 -47 0
-2 -48 0
-2 -49 0
-2 -50 0
-17 -29 0
-17 -40 0
-17 -41 0
-17 -42 0
-17 -43 0
-17 -44 0
-17 -45 0
-17 -46 0
-17 -47 0
-17 -48 0
-17 -49 0
-17 -50 0
-29 -40 0
-29 -41 0
-29 -42 0
-29 -43 0
-29 -44 0
-29 -45 0
-29 -46 0
-29 -47 0
-29 -48 0
-29 -49 0
-29 -50 0
-40 -41 0
-40 -42 0
-40 -43 0
-40 -44 0
-40 -45 0
-40 -46 0
-40 -47 0
-40 -48 0
-40 -49 0
-40 -50 0
-41 -42 0
-41 -43 0
-41 -44 0
-41 -45 0
-41 -46 0
-41 -47 0
-41 -48 0
-41 -49 0
-41 -50 0
-42 -43 0
-42 -44 0
-42 -45 0
-42 -46 0
-42 -47 0
-42 -48 0
-42 -49 0
-42 -50 0
-43 -44 0
-43 -45 0
-43 -46 0
-43 -47 0
-43 -48 0
-43 -49 0
-43 -50 0
-44 -45 0
-44 -46 0
-44 -47 0
-44 -48 0
-44 -49 0
-44 -50 0
-45 -46 0
-45 -47 0
-45 -48 0
-45 -49 0
-45 -50 0
-46 -47 0
-46 -48 0
-46 -49 0
-46 -50 0
-47 -48 0
-47 -49 0
-47 -50 0
-48 -49 0
-48 -50 0
-49 -50 0
2 17 29 40 41 42 43 44 45 46 47 48 49 50 0
-12 -40 0
-12 -51 0
-12 -52 0
-40 -51 0
-40 -52 0
-51 -52 0
12 40 51 52 0
-41 -53 0
-41 -54 0
-41 -55 0
-41 -56 0
-41 -57 0
-53 -54 0
-53 -55 0
-53 -56 0
-53 -57 0
-54 -55 0
-54 -56 0
-54 -57 0
-55 -56 0
-55 -57 0
-56 -57 0
41 53 54 55 56 57 0
-3 -18 0
-3 -53 0
-3 -58 0
-3 -59 0
-3 -60 0
-3 -61 0
-3 -62 0
-3 -63 0
-3 -64 0
-3 -65 0
-18 -53 0
-18 -58 0
-18 -59 0
-18 -60 0
-18 -61 0
-18 -62 0
-18 -63 0
-18 -64 0
-18 -65 0
-53 -58 0
-53 -59 0
-53 -60 0
-53 -61 0
-53 -62 0
-53 -63 0
-53 -64 0
-53 -65 0
-58 -59 0
-58 -60 0
-58 -61 0
-58 -62 0
-58 -63 0
-58 -64 0
-58 -65 0
-59 -60 0
-59 -61 0
-59 -62 0
-59 -63 0
-59 -64 0
-59 -65 0
-60 -61 0
-60 -62 0
-60 -63 0
-60 -64 0
-60 -65 0
-61 -62 0
-61 -63 0
-61 -64 0
-61 -65 0
-62 -63 0
-62 -64 0
-62 -65 0
-63 -64 0
-63 -65 0
-64 -65 0
3 18 53 58 59 60 61 62 63 64 65 0
-42 -54 0
-42 -66 0
-42 -67 0
-42 -68 0
-42 -69 0
-54 -66 0
-54 -67 0
-54 -68 0
-54 -69 0
-66 -67 0
-66 -68 0
-66 -69 0
-67 -68 0
-67 -69 0
-68 -69 0
42 54 66 67 68 69 0
-24 -66 0
-24 -70 0
-24 -71 0
-24 -72 0
-24 -73 0
-24 -74 0
-66 -70 0
-66 -71 0
-66 -72 0
-66 -73 0
-66 -74 0
-70 -71 0
-70 -72 0
-70 -73 0
-70 -74 0
-71 -72 0
-71 -73 0
-71 -74 0
-72 -73 0
-72 -74 0
-73 -74 0
24 66 70 71 72 73 74 0
-4 -51 0
-4 -67 0
-4 -70 0
-4 -75 0
-4 -76 0
-4 -77 0
-4 -78 0
-4 -79 0
-4 -80 0
-4 -81 0
-4 -82 0
-51 -67 0
-51 -70 0
-51 -75 0
-51 -76 0
-51 -77 0
-51 -78 0
-51 -79 0
-51 -80 0
-51 -81 0
-51 -82 0
-67 -70 0
-67 -75 0
-67 -76 0
-67 -77 0
-67 -78 0
-67 -79 0
-67 -80 0
-67 -81 0
-67 -82 0
-70 -75 0
-70 -76 0
-70 -77 0
-70 -78 0
-70 -79 0
-70 -80 0
-70 -81 0
-70 -82 0
-75 -76 0
-75 -77 0
-75 -78 0
-75 -79 0
-75 -80 0
-75 -81 0
-75 -82 0
-76 -77 0
-76 -78 0
-76 -79 0
-76 -80 0
-76 -81 0
-76 -82 0
-77 -78 0
-77 -79 0
-77 -80 0
-77 -81 0
-77 -82 0
-78 -79 0
-78 -80 0
-78 -81 0
-78 -82 0
-79 -80 0
-79 -81 0
-79 -82 0
-80 -81 0
-80 -82 0
-81 -82 0
4 51 67 70 75 76 77 78 79 80 81 82 0
-5 -13 0
-5 -25 0
-5 -55 0
-5 -58 0
-5 -83 0
-5 -84 0
-13 -25 0
-13 -55 0
-13 -58 0
-13 -83 0
-13 -84 0
-25 -55 0
-25 -58 0
-25 -83 0
-25 -84 0
-55 -58 0
-55 -83 0
-55 -84 0
-58 -83 0
-58 -84 0
-83 -84 0
5 13 25 55 58 83 84 0
-8 -14 0
-8 -30 0
-8 -59 0
-8 -75 0
-8 -85 0
-8 -86 0
-8 -87 0
-14 -30 0
-14 -59 0
-14 -75 0
-14 -85 0
-14 -86 0
-14 -87 0
-30 -59 0
-30 -75 0
-30 -85 0
-30 -86 0
-30 -87 0
-59 -75 0
-59 -85 0
-59 -86 0
-59 -87 0
-75 -85 0
-75 -86 0
-75 -87 0
-85 -86 0
-85 -87 0
-86 -87 0
8 14 30 59 75 85 86 87 0
-26 -43 0
-26 -88 0
-26 -89 0
-43 -88 0
-43 -89 0
-88 -89 0
26 43 88 89 0
-9 -27 0
-9 -31 0
-9 -56 0
-9 -76 0
-9 -90 0
-9 -91 0
-27 -31 0
-27 -56 0
-27 -76 0
-27 -90 0
-27 -91 0
-31 -56 0
-31 -76 0
-31 -90 0
-31 -91 0
-56 -76 0
-56 -90 0
-56 -91 0
-76 -90 0
-76 -91 0
-90 -91 0
9 27 31 56 76 90 91 0
-44 -60 0
-44 -77 0
-44 -88 0
-44 -92 0
-44 -93 0
-44 -94 0
-44 -95 0
-60 -77 0
-60 -88 0
-60 -92 0
-60 -93 0
-60 -94 0
-60 -95 0
-77 -88 0
-77 -92 0
-77 -93 0
-77 -94 0
-77 -95 0
-88 -92 0
-88 -93 0
-88 -94 0
-88 -95 0
-92 -93 0
-92 -94 0
-92 -95 0
-93 -94 0
-93 -95 0
-94 -95 0
44 60 77 88 92 93 94 95 0
-32 -45 0
-32 -52 0
-32 -78 0
-32 -96 0
-32 -97 0
-32 -98 0
-45 -52 0
-45 -78 0
-45 -96 0
-45 -97 0
-45 -98 0
-52 -78 0
-52 -96 0
-52 -97 0
-52 -98 0
-78 -96 0
-78 -97 0
-78 -98 0
-96 -97 0
-96 -98 0
-97 -98 0
32 45 52 78 96 97 98 0
-15 -19 0
-15 -71 0
-15 -79 0
-15 -83 0
-15 -89 0
-15 -92 0
-15 -99 0
-15 -100 0
-15 -101 0
-15 -102 0
-19 -71 0
-19 -79 0
-19 -83 0
-19 -89 0
-19 -92 0
-19 -99 0
-19 -100 0
-19 -101 0
-19 -102 0
-71 -79 0
-71 -83 0
-71 -89 0
-71 -92 0
-71 -99 0
-71 -100 0
-71 -101 0
-71 -102 0
-79 -83 0
-79 -89 0
-79 -92 0
-79 -99 0
-79 -100 0
-79 -101 0
-79 -102 0
-83 -89 0
-83 -92 0
-83 -99 0
-83 -100 0
-83 -101 0
-83 -102 0
-89 -92 0
-89 -99 0
-89 -100 0
-89 -101 0
-89 -102 0
-92 -99 0
-92 -100 0
-92 -101 0
-92 -102 0
-99 -100 0
-99 -101 0
-99 -102 0
-100 -101 0
-100 -102 0
-101 -102 0
15 19 71 79 83 89 92 99 100 101 102 0
-46 -61 0
-46 -85 0
-46 -93 0
-46 -99 0
-46 -103 0
-46 -104 0
-46 -105 0
-46 -106 0
-46 -107 0
-61 -85 0
-61 -93 0
-61 -99 0
-61 -103 0
-61 -104 0
-61 -105 0
-61 -106 0
-61 -107 0
-85 -93 0
-85 -99 0
-85 -103 0
-85 -104 0
-85 -105 0
-85 -106 0
-85 -107 0
-93 -99 0
-93 -103 0
-93 -104 0
-93 -105 0
-93 -106 0
-93 -107 0
-99 -103 0
-99 -104 0
-99 -105 0
-99 -106 0
-99 -107 0
-103 -104 0
-103 -105 0
-103 -106 0
-103 -107 0
-104 -105 0
-104 -106 0
-104 -107 0
-105 -106 0
-105 -107 0
-106 -107 0
46 61 85 93 99 103 104 105 106 107 0
-33 -72 0
-33 -90 0
-33 -100 0
-33 -103 0
-33 -108 0
-33 -109 0
-33 -110 0
-33 -111 0
-33 -112 0
-72 -90 0
-72 -100 0
-72 -103 0
-72 -108 0
-72 -109 0
-72 -110 0
-72 -111 0
-72 -112 0
-90 -100 0
-90 -103 0
-90 -108 0
-90 -109 0
-90 -110 0
-90 -111 0
-90 -112 0
-100 -103 0
-100 -108 0
-100 -109 0
-100 -110 0
-100 -111 0
-100 -112 0
-103 -108 0
-103 -109 0
-103 -110 0
-103 -111 0
-103 -112 0
-108 -109 0
-108 -110 0
-108 -111 0
-108 -112 0
-109 -110 0
-109 -111 0
-109 -112 0
-110 -111 0
-110 -112 0
-111 -112 0
33 72 90 100 103 108 109 110 111 112 0
-20 -34 0
-20 -73 0
-20 -80 0
-20 -86 0
-20 -96 0
-20 -104 0
-20 -108 0
-20 -113 0
-34 -73 0
-34 -80 0
-34 -86 0
-34 -96 0
-34 -104 0
-34 -108 0
-34 -113 0
-73 -80 0
-73 -86 0
-73 -96 0
-73 -104 0
-73 -108 0
-73 -113 0
-80 -86 0
-80 -96 0
-80 -104 0
-80 -108 0
-80 -113 0
-86 -96 0
-86 -104 0
-86 -108 0
-86 -113 0
-96 -104 0
-96 -108 0
-96 -113 0
-104 -108 0
-104 -113 0
-108 -113 0
20 34 73 80 86 96 104 108 113 0
-21 -35 0
-21 -47 0
-21 -62 0
-21 -81 0
-21 -87 0
-21 -97 0
-21 -114 0
-21 -115 0
-21 -116 0
-35 -47 0
-35 -62 0
-35 -81 0
-35 -87 0
-35 -97 0
-35 -114 0
-35 -115 0
-35 -116 0
-47 -62 0
-47 -81 0
-47 -87 0
-47 -97 0
-47 -114 0
-47 -115 0
-47 -116 0
-62 -81 0
-62 -87 0
-62 -97 0
-62 -114 0
-62 -115 0
-62 -116 0
-81 -87 0
-81 -97 0
-81 -114 0
-81 -115 0
-81 -116 0
-87 -97 0
-87 -114 0
-87 -115 0
-87 -116 0
-97 -114 0
-97 -115 0
-97 -116 0
-114 -115 0
-114 -116 0
-115 -116 0
21 35 47 62 81 87 97 114 115 116 0
-22 -36 0
-22 -48 0
-22 -68 0
-22 -101 0
-22 -105 0
-22 -109 0
-22 -117 0
-22 -118 0
-36 -48 0
-36 -68 0
-36 -101 0
-36 -105 0
-36 -109 0
-36 -117 0
-36 -118 0
-48 -68 0
-48 -101 0
-48 -105 0
-48 -109 0
-48 -117 0
-48 -118 0
-68 -101 0
-68 -105 0
-68 -109 0
-68 -117 0
-68 -118 0
-101 -105 0
-101 -109 0
-101 -117 0
-101 -118 0
-105 -109 0
-105 -117 0
-105 -118 0
-109 -117 0
-109 -118 0
-117 -118 0
22 36 48 68 101 105 109 117 118 0
-37 -49 0
-37 -63 0
-37 -94 0
-37 -98 0
-37 -102 0
-37 -106 0
-37 -110 0
-37 -119 0
-49 -63 0
-49 -94 0
-49 -98 0
-49 -102 0
-49 -106 0
-49 -110 0
-49 -119 0
-63 -94 0
-63 -98 0
-63 -102 0
-63 -106 0
-63 -110 0
-63 -119 0
-94 -98 0
-94 -102 0
-94 -106 0
-94 -110 0
-94 -119 0
-98 -102 0
-98 -106 0
-98 -110 0
-98 -119 0
-102 -106 0
-102 -110 0
-102 -119 0
-106 -110 0
-106 -119 0
-110 -119 0
37 49 63 94 98 102 106 110 119 0
-10 -50 0
-10 -64 0
-10 -74 0
-10 -82 0
-10 -111 0
-10 -120 0
-50 -64 0
-50 -74 0
-50 -82 0
-50 -111 0
-50 -120 0
-64 -74 0
-64 -82 0
-64 -111 0
-64 -120 0
-74 -82 0
-74 -111 0
-74 -120 0
-82 -111 0
-82 -120 0
-111 -120 0
10 50 64 74 82 111 120 0
-6 -28 0
-6 -38 0
-6 -57 0
-6 -107 0
-6 -112 0
-6 -114 0
-6 -119 0
-28 -38 0
-28 -57 0
-28 -107 0
-28 -112 0
-28 -114 0
-28 -119 0
-38 -57 0
-38 -107 0
-38 -112 0
-38 -114 0
-38 -119 0
-57 -107 0
-57 -112 0
-57 -114 0
-57 -119 0
-107 -112 0
-107 -114 0
-107 -119 0
-112 -114 0
-112 -119 0
-114 -119 0
6 28 38 57 107 112 114 119 0
-11 -16 0
-11 -65 0
-11 -69 0
-11 -84 0
-11 -95 0
-11 -113 0
-11 -115 0
-11 -117 0
-16 -65 0
-16 -69 0
-16 -84 0
-16 -95 0
-16 -113 0
-16 -115 0
-16 -117 0
-65 -69 0
-65 -84 0
-65 -95 0
-65 -113 0
-65 -115 0
-65 -117 0
-69 -84 0
-69 -95 0
-69 -113 0
-69 -115 0
-69 -117 0
-84 -95 0
-84 -113 0
-84 -115 0
-84 -117 0
-95 -113 0
-95 -115 0
-95 -117 0
-113 -115 0
-113 -117 0
-115 -117 0
11 16 65 69 84 95 113 115 117 0
-39 -91 0
-39 -116 0
-39 -118 0
-39 -120 0
-91 -116 0
-91 -118 0
-91 -120 0
-116 -118 0
-116 -120 0
-118 -120 0
39 91 116 118 120 0